CapLotSizing_PM/src/Instancias/TCHSLT/6i6p6m/NBB05.OUT
 CG ITER, OVMR, OVMRUB =           1   37086.6640625   17286.9003906
 CG ITER, OVMR, OVMRUB =           2   27025.5703125   15782.0156250
 CG ITER, OVMR, OVMRUB =           3   25254.0410156   15782.0156250
 CG ITER, OVMR, OVMRUB =           4   25254.0410156   15782.0156250
 CG ITER, OVMR, OVMRUB =           5   25254.0410156   15782.0156250
 CG ITER, OVMR, OVMRUB =           6   25254.0410156   15782.0156250
 CG ITER, OVMR, OVMRUB =           7   25254.0410156   15782.0156250
 CG ITER, OVMR, OVMRUB =           8   25254.0410156   15782.0156250
 CG ITER, OVMR, OVMRUB =           9   25254.0410156   15782.0156250
 CG ITER, OVMR, OVMRUB =          10   25254.0410156   15782.0156250
OVLB =   25254.0410156 OVLUB =   15782.0156250 TIME =       0.2500000
